min:x1+x2+x3+x4+x5+x6+x7+x8+x9+x10+x11+x12+x13+x14+x15+x16+x17+x18+x19+x20+x21+x22+x23+x24+x25+x26+x27+x28+x29+x30;
    A1+B1=1;
    A2+B2=1;
    A3+B3=1;
    A4+B4=1;
    A5+B5=1;
    A6+B6=1;
    A7+B7=1;
    A8+B8=1;
    A9+B9=1;
    A10+B10=1;
    A11+B11=1;
    A12+B12=1;
    A13+B13=1;
    A14+B14=1;
    A15+B15=1;
    A16+B16=1;
    A17+B17=1;
    A18+B18=1;
    A19+B19=1;
    A20+B20=1;
    A21+B21=1;
    A22+B22=1;
    A23+B23=1;
    A24+B24=1;
    A25+B25=1;
    A26+B26=1;
    A27+B27=1;
    A28+B28=1;
    A29+B29=1;
    A30+B30=1;
    A31+B31=1;
    A32+B32=1;
    A33+B33=1;
    A34+B34=1;
    A35+B35=1;
    A36+B36=1;
    A37+B37=1;
    A38+B38=1;
    A39+B39=1;
    A40+B40=1;
    A41+B41=1;
    A42+B42=1;
    A43+B43=1;
    A44+B44=1;
    A45+B45=1;
    A46+B46=1;
    A47+B47=1;
    A48+B48=1;
    A49+B49=1;
    A50+B50=1;
    A51+B51=1;
    A52+B52=1;
    A53+B53=1;
    A54+B54=1;
    A55+B55=1;
    A56+B56=1;
    A57+B57=1;
    A58+B58=1;
    A59+B59=1;
    A60+B60=1;
    A61+B61=1;
    A62+B62=1;
    A63+B63=1;
    A64+B64=1;
    A65+B65=1;
    A66+B66=1;
    A67+B67=1;
    A68+B68=1;
    A69+B69=1;
    A70+B70=1;
    A71+B71=1;
    A72+B72=1;
    A73+B73=1;
    A74+B74=1;
    A75+B75=1;
    A76+B76=1;
    A77+B77=1;
    A78+B78=1;
    A79+B79=1;
    A80+B80=1;
    A81+B81=1;
    A82+B82=1;
    A83+B83=1;
    A84+B84=1;
    A85+B85=1;
    A86+B86=1;
    A87+B87=1;
    A88+B88=1;
    A89+B89=1;
    A90+B90=1;
    A91+B91=1;
    A92+B92=1;
    A93+B93=1;
    A94+B94=1;
    A95+B95=1;
    A96+B96=1;
    A97+B97=1;
    A98+B98=1;
    A99+B99=1;
    A100+B100=1;
    A101+B101=1;
    A102+B102=1;
    A103+B103=1;
    A104+B104=1;
    A105+B105=1;
    A106+B106=1;
    A107+B107=1;
    A108+B108=1;
    A109+B109=1;
    A110+B110=1;
    A111+B111=1;
    A112+B112=1;
    A113+B113=1;
    A114+B114=1;
    A115+B115=1;
    A116+B116=1;
    A117+B117=1;
    A118+B118=1;
    A119+B119=1;
    A120+B120=1;
    A121+B121=1;
    A122+B122=1;
    A123+B123=1;
    A124+B124=1;
    A125+B125=1;
    A126+B126=1;
    A127+B127=1;
    A128+B128=1;
    A129+B129=1;
    A130+B130=1;
    A131+B131=1;
    A132+B132=1;
    A133+B133=1;
    A134+B134=1;
    A135+B135=1;
    A136+B136=1;
    A137+B137=1;
    A138+B138=1;
    A139+B139=1;
    A140+B140=1;
    A141+B141=1;
    A142+B142=1;
    A143+B143=1;
    A144+B144=1;
    A145+B145=1;
    A146+B146=1;
    A147+B147=1;
    A148+B148=1;
    A149+B149=1;
    A150+B150=1;
    A151+B151=1;
    A152+B152=1;
    A153+B153=1;
    A154+B154=1;
    A155+B155=1;
    A156+B156=1;
    A157+B157=1;
    A158+B158=1;
    A159+B159=1;
    A160+B160=1;
    A161+B161=1;
    A162+B162=1;
    A163+B163=1;
    A164+B164=1;
    A165+B165=1;
    A166+B166=1;
    A167+B167=1;
    A168+B168=1;
    A169+B169=1;
    A170+B170=1;
    A171+B171=1;
    A172+B172=1;
    A173+B173=1;
    A174+B174=1;
    A175+B175=1;
    A176+B176=1;
    A177+B177=1;
    A178+B178=1;
    A179+B179=1;
    A180+B180=1;
    A181+B181=1;
    A182+B182=1;
    A183+B183=1;
    A184+B184=1;
    A185+B185=1;
    A186+B186=1;
    A187+B187=1;
    A188+B188=1;
    A189+B189=1;
    A190+B190=1;
    A191+B191=1;
    A192+B192=1;
    A193+B193=1;
    A194+B194=1;
    A195+B195=1;
    A196+B196=1;
    A197+B197=1;
    A198+B198=1;
    A199+B199=1;
    A200+B200=1;
    A201+B201=1;
    A202+B202=1;
    A203+B203=1;
    A204+B204=1;
    A205+B205=1;
    A206+B206=1;
    A207+B207=1;
    A208+B208=1;
    A209+B209=1;
    A210+B210=1;
    A211+B211=1;
    A212+B212=1;
    A213+B213=1;
    A214+B214=1;
    A215+B215=1;
    A216+B216=1;
    A217+B217=1;
    A218+B218=1;
    A219+B219=1;
    A220+B220=1;
    A221+B221=1;
    A222+B222=1;
    A223+B223=1;
    A224+B224=1;
    A225+B225=1;
    A226+B226=1;
    A227+B227=1;
    A228+B228=1;
    A229+B229=1;
    A230+B230=1;
    A231+B231=1;
    A232+B232=1;
    A233+B233=1;
    A234+B234=1;
    A235+B235=1;
    A236+B236=1;
    A237+B237=1;
    A238+B238=1;
    A239+B239=1;
    A240+B240=1;
    A241+B241=1;
    A242+B242=1;
    A243+B243=1;
    A244+B244=1;
    A245+B245=1;
    A246+B246=1;
    A247+B247=1;
    A248+B248=1;
    A249+B249=1;
    A250+B250=1;
    A251+B251=1;
    A252+B252=1;
    A253+B253=1;
    A254+B254=1;
    A255+B255=1;
    A256+B256=1;
    A257+B257=1;
    A258+B258=1;
    A259+B259=1;
    A1+A2+A3+A4+A5+A6+A7+A8+A9+A10+A11+A12+A13+A14+4 x1>=4;
    B1+A15+A16+A17+A18+A19+A20+A21+A22+A23+A24+A25+A26+A27+A28+A29+A30+16 x2>=16;
    B2+B15+A31+A32+A33+A34+A35+A36+A37+A38+A39+A40+A41+A42+A43+A44+A45+A46+A47+A48+A49+A50+20 x3>=20;
    B3+B31+A51+A52+A53+A54+A55+A56+A57+A58+A59+A60+A61+A62+A63+A64+8 x4>=8;
    B16+B32+B51+A65+A66+A67+A68+A69+A70+A71+A72+A73+A74+A75+A76+12 x5>=12;
    B4+B17+B33+B52+A77+A78+A79+A80+A81+A82+A83+A84+A85+A86+A87+A88+A89+A90+1 x6>=1;
    B5+B18+B34+B65+B77+A91+A92+A93+A94+A95+A96+A97+A98+A99+A100+A101+A102+A103+A104+A105+A106+A107+A108+12 x7>=12;
    B35+B66+B78+B91+A109+A110+A111+A112+A113+A114+A115+A116+A117+A118+A119+A120+A121+A122+17 x8>=17;
    B19+B67+B92+B109+A123+A124+A125+A126+A127+A128+A129+A130+A131+A132+A133+A134+14 x9>=14;
    B6+B36+B53+B93+B123+A135+A136+A137+A138+A139+A140+A141+A142+A143+A144+A145+A146+A147+A148+A149+A150+7 x10>=7;
    B54+B68+B79+B94+B110+B124+B135+A151+A152+A153+A154+A155+A156+A157+1 x11>=1;
    B20+B37+B95+B111+B136+B151+A158+A159+A160+A161+A162+A163+A164+A165+A166+A167+13 x12>=13;
    B7+B96+B112+B125+B137+A168+A169+A170+A171+A172+A173+A174+A175+A176+A177+A178+3 x13>=3;
    B8+B21+B38+B80+B97+B113+B168+A179+A180+A181+A182+A183+A184+A185+A186+A187+A188+6 x14>=6;
    B81+B114+B126+B138+B152+B158+B169+B179+A189+A190+A191+A192+A193+A194+A195+3 x15>=3;
    B69+B98+B127+B139+B153+B170+B180+A196+A197+A198+A199+A200+A201+A202+A203+11 x16>=11;
    B22+B39+B55+B70+B99+B128+B140+B159+B171+B181+A204+A205+A206+A207+A208+A209+2 x17>=2;
    B9+B23+B71+B100+B115+B141+B160+B172+B182+B189+B196+B204+A210+A211+A212+A213+A214+A215+2 x18>=2;
    B24+B40+B56+B116+B129+B142+B161+B183+B190+B205+B210+A216+A217+A218+A219+A220+A221+10 x19>=10;
    B10+B41+B72+B82+B143+B154+B162+B173+B184+B191+B197+B211+A222+A223+A224+A225+A226+A227+A228+18 x20>=18;
    B25+B42+B57+B73+B117+B144+B163+B174+B185+B192+B216+A229+A230+A231+A232+A233+2 x21>=2;
    B11+B43+B74+B101+B118+B130+B164+B198+B206+B222+B229+A234+A235+A236+A237+A238+A239+11 x22>=11;
    B12+B26+B44+B75+B83+B102+B145+B199+B230+B234+A240+A241+A242+A243+A244+A245+2 x23>=2;
    B45+B58+B84+B103+B119+B146+B155+B165+B200+B212+B217+B223+B231+B235+B240+A246+A247+A248+A249+A250+11 x24>=11;
    B27+B46+B59+B85+B104+B166+B175+B186+B193+B213+B218+B224+B232+B241+B246+A251+A252+A253+A254+7 x25>=7;
    B13+B28+B47+B60+B76+B86+B105+B120+B131+B147+B167+B176+B207+B225+B236+B242+B247+B251+A255+A256+A257+4 x26>=4;
    B14+B29+B48+B61+B87+B106+B187+B201+B214+B219+B233+B237+B243+B248+B255+A258+A259+12 x27>=12;
    B62+B88+B121+B132+B148+B156+B194+B208+B215+B226+B238+B249+B252+B256+13 x28>=13;
    B30+B49+B63+B89+B107+B133+B149+B157+B177+B188+B195+B202+B209+B220+B227+B244+B253+B258+17 x29>=17;
    B50+B64+B90+B108+B122+B134+B150+B178+B203+B221+B228+B239+B245+B250+B254+B257+B259+10 x30>=10;
bin A1,B1,A2,B2,A3,B3,A4,B4,A5,B5,A6,B6,A7,B7,A8,B8,A9,B9,A10,B10,A11,B11,A12,B12,A13,B13,A14,B14,A15,B15,A16,B16,A17,B17,A18,B18,A19,B19,A20,B20,A21,B21,A22,B22,A23,B23,A24,B24,A25,B25,A26,B26,A27,B27,A28,B28,A29,B29,A30,B30,A31,B31,A32,B32,A33,B33,A34,B34,A35,B35,A36,B36,A37,B37,A38,B38,A39,B39,A40,B40,A41,B41,A42,B42,A43,B43,A44,B44,A45,B45,A46,B46,A47,B47,A48,B48,A49,B49,A50,B50,A51,B51,A52,B52,A53,B53,A54,B54,A55,B55,A56,B56,A57,B57,A58,B58,A59,B59,A60,B60,A61,B61,A62,B62,A63,B63,A64,B64,A65,B65,A66,B66,A67,B67,A68,B68,A69,B69,A70,B70,A71,B71,A72,B72,A73,B73,A74,B74,A75,B75,A76,B76,A77,B77,A78,B78,A79,B79,A80,B80,A81,B81,A82,B82,A83,B83,A84,B84,A85,B85,A86,B86,A87,B87,A88,B88,A89,B89,A90,B90,A91,B91,A92,B92,A93,B93,A94,B94,A95,B95,A96,B96,A97,B97,A98,B98,A99,B99,A100,B100,A101,B101,A102,B102,A103,B103,A104,B104,A105,B105,A106,B106,A107,B107,A108,B108,A109,B109,A110,B110,A111,B111,A112,B112,A113,B113,A114,B114,A115,B115,A116,B116,A117,B117,A118,B118,A119,B119,A120,B120,A121,B121,A122,B122,A123,B123,A124,B124,A125,B125,A126,B126,A127,B127,A128,B128,A129,B129,A130,B130,A131,B131,A132,B132,A133,B133,A134,B134,A135,B135,A136,B136,A137,B137,A138,B138,A139,B139,A140,B140,A141,B141,A142,B142,A143,B143,A144,B144,A145,B145,A146,B146,A147,B147,A148,B148,A149,B149,A150,B150,A151,B151,A152,B152,A153,B153,A154,B154,A155,B155,A156,B156,A157,B157,A158,B158,A159,B159,A160,B160,A161,B161,A162,B162,A163,B163,A164,B164,A165,B165,A166,B166,A167,B167,A168,B168,A169,B169,A170,B170,A171,B171,A172,B172,A173,B173,A174,B174,A175,B175,A176,B176,A177,B177,A178,B178,A179,B179,A180,B180,A181,B181,A182,B182,A183,B183,A184,B184,A185,B185,A186,B186,A187,B187,A188,B188,A189,B189,A190,B190,A191,B191,A192,B192,A193,B193,A194,B194,A195,B195,A196,B196,A197,B197,A198,B198,A199,B199,A200,B200,A201,B201,A202,B202,A203,B203,A204,B204,A205,B205,A206,B206,A207,B207,A208,B208,A209,B209,A210,B210,A211,B211,A212,B212,A213,B213,A214,B214,A215,B215,A216,B216,A217,B217,A218,B218,A219,B219,A220,B220,A221,B221,A222,B222,A223,B223,A224,B224,A225,B225,A226,B226,A227,B227,A228,B228,A229,B229,A230,B230,A231,B231,A232,B232,A233,B233,A234,B234,A235,B235,A236,B236,A237,B237,A238,B238,A239,B239,A240,B240,A241,B241,A242,B242,A243,B243,A244,B244,A245,B245,A246,B246,A247,B247,A248,B248,A249,B249,A250,B250,A251,B251,A252,B252,A253,B253,A254,B254,A255,B255,A256,B256,A257,B257,A258,B258,A259,B259,x1,x2,x3,x4,x5,x6,x7,x8,x9,x10,x11,x12,x13,x14,x15,x16,x17,x18,x19,x20,x21,x22,x23,x24,x25,x26,x27,x28,x29,x30;